!-Generator archetypal
!-Option SortedOrder

Version,
  25.1;                    !- Version Identifier

Building,
  Simple One Zone (Wireframe DXF),!- Name
  0,                          !- North Axis
  Suburbs,                    !- Terrain
  0.04,                       !- Loads Convergence Tolerance Value
  0.004,                      !- Temperature Convergence Tolerance Value
  MinimalShadowing,           !- Solar Distribution
  30,                         !- Maximum Number Of Warmup Days
  6;                          !- Minimum Number Of Warmup Days

BuildingSurface:Detailed,
  Zn001:Wall001,              !- Name
  Wall,                       !- Surface Type
  R13WALL,                    !- Construction Name
  ZONE ONE,                   !- Zone Name
  ,                           !- Space Name
  Outdoors,                   !- Outside Boundary Condition
  ,                           !- Outside Boundary Condition Object
  SunExposed,                 !- Sun Exposure
  WindExposed,                !- Wind Exposure
  0.5,                        !- View Factor To Ground
  4,                          !- Number Of Vertices
  0,                          !- Vertex X Coordinate
  0,                          !- Vertex Y Coordinate
  4.572,                      !- Vertex Z Coordinate
  0,                          !- Vertex X Coordinate 2
  0,                          !- Vertex Y Coordinate 2
  0,                          !- Vertex Z Coordinate 2
  15.24,                      !- Vertex X Coordinate 3
  0,                          !- Vertex Y Coordinate 3
  0,                          !- Vertex Z Coordinate 3
  15.24,                      !- Vertex X Coordinate 4
  0,                          !- Vertex Y Coordinate 4
  4.572;                      !- Vertex Z Coordinate 4

BuildingSurface:Detailed,
  Zn001:Wall002,              !- Name
  Wall,                       !- Surface Type
  R13WALL,                    !- Construction Name
  ZONE ONE,                   !- Zone Name
  ,                           !- Space Name
  Outdoors,                   !- Outside Boundary Condition
  ,                           !- Outside Boundary Condition Object
  SunExposed,                 !- Sun Exposure
  WindExposed,                !- Wind Exposure
  0.5,                        !- View Factor To Ground
  4,                          !- Number Of Vertices
  15.24,                      !- Vertex X Coordinate
  0,                          !- Vertex Y Coordinate
  4.572,                      !- Vertex Z Coordinate
  15.24,                      !- Vertex X Coordinate 2
  0,                          !- Vertex Y Coordinate 2
  0,                          !- Vertex Z Coordinate 2
  15.24,                      !- Vertex X Coordinate 3
  15.24,                      !- Vertex Y Coordinate 3
  0,                          !- Vertex Z Coordinate 3
  15.24,                      !- Vertex X Coordinate 4
  15.24,                      !- Vertex Y Coordinate 4
  4.572;                      !- Vertex Z Coordinate 4

BuildingSurface:Detailed,
  Zn001:Wall003,              !- Name
  Wall,                       !- Surface Type
  R13WALL,                    !- Construction Name
  ZONE ONE,                   !- Zone Name
  ,                           !- Space Name
  Outdoors,                   !- Outside Boundary Condition
  ,                           !- Outside Boundary Condition Object
  SunExposed,                 !- Sun Exposure
  WindExposed,                !- Wind Exposure
  0.5,                        !- View Factor To Ground
  4,                          !- Number Of Vertices
  15.24,                      !- Vertex X Coordinate
  15.24,                      !- Vertex Y Coordinate
  4.572,                      !- Vertex Z Coordinate
  15.24,                      !- Vertex X Coordinate 2
  15.24,                      !- Vertex Y Coordinate 2
  0,                          !- Vertex Z Coordinate 2
  0,                          !- Vertex X Coordinate 3
  15.24,                      !- Vertex Y Coordinate 3
  0,                          !- Vertex Z Coordinate 3
  0,                          !- Vertex X Coordinate 4
  15.24,                      !- Vertex Y Coordinate 4
  4.572;                      !- Vertex Z Coordinate 4

BuildingSurface:Detailed,
  Zn001:Wall004,              !- Name
  Wall,                       !- Surface Type
  R13WALL,                    !- Construction Name
  ZONE ONE,                   !- Zone Name
  ,                           !- Space Name
  Outdoors,                   !- Outside Boundary Condition
  ,                           !- Outside Boundary Condition Object
  SunExposed,                 !- Sun Exposure
  WindExposed,                !- Wind Exposure
  0.5,                        !- View Factor To Ground
  4,                          !- Number Of Vertices
  0,                          !- Vertex X Coordinate
  15.24,                      !- Vertex Y Coordinate
  4.572,                      !- Vertex Z Coordinate
  0,                          !- Vertex X Coordinate 2
  15.24,                      !- Vertex Y Coordinate 2
  0,                          !- Vertex Z Coordinate 2
  0,                          !- Vertex X Coordinate 3
  0,                          !- Vertex Y Coordinate 3
  0,                          !- Vertex Z Coordinate 3
  0,                          !- Vertex X Coordinate 4
  0,                          !- Vertex Y Coordinate 4
  4.572;                      !- Vertex Z Coordinate 4

BuildingSurface:Detailed,
  Zn001:Flr001,               !- Name
  Floor,                      !- Surface Type
  FLOOR,                      !- Construction Name
  ZONE ONE,                   !- Zone Name
  ,                           !- Space Name
  Adiabatic,                  !- Outside Boundary Condition
  ,                           !- Outside Boundary Condition Object
  NoSun,                      !- Sun Exposure
  NoWind,                     !- Wind Exposure
  1,                          !- View Factor To Ground
  4,                          !- Number Of Vertices
  15.24,                      !- Vertex X Coordinate
  0,                          !- Vertex Y Coordinate
  0,                          !- Vertex Z Coordinate
  0,                          !- Vertex X Coordinate 2
  0,                          !- Vertex Y Coordinate 2
  0,                          !- Vertex Z Coordinate 2
  0,                          !- Vertex X Coordinate 3
  15.24,                      !- Vertex Y Coordinate 3
  0,                          !- Vertex Z Coordinate 3
  15.24,                      !- Vertex X Coordinate 4
  15.24,                      !- Vertex Y Coordinate 4
  0;                          !- Vertex Z Coordinate 4

BuildingSurface:Detailed,
  Zn001:Roof001,              !- Name
  Roof,                       !- Surface Type
  ROOF31,                     !- Construction Name
  ZONE ONE,                   !- Zone Name
  ,                           !- Space Name
  Outdoors,                   !- Outside Boundary Condition
  ,                           !- Outside Boundary Condition Object
  SunExposed,                 !- Sun Exposure
  WindExposed,                !- Wind Exposure
  0,                          !- View Factor To Ground
  4,                          !- Number Of Vertices
  0,                          !- Vertex X Coordinate
  15.24,                      !- Vertex Y Coordinate
  4.572,                      !- Vertex Z Coordinate
  0,                          !- Vertex X Coordinate 2
  0,                          !- Vertex Y Coordinate 2
  4.572,                      !- Vertex Z Coordinate 2
  15.24,                      !- Vertex X Coordinate 3
  0,                          !- Vertex Y Coordinate 3
  4.572,                      !- Vertex Z Coordinate 3
  15.24,                      !- Vertex X Coordinate 4
  15.24,                      !- Vertex Y Coordinate 4
  4.572;                      !- Vertex Z Coordinate 4

Construction,
  R13WALL,                    !- Name
  R13LAYER;                   !- Outside Layer

Construction,
  FLOOR,                      !- Name
  C5 - 4 IN HW CONCRETE;      !- Outside Layer

Construction,
  ROOF31,                     !- Name
  R31LAYER;                   !- Outside Layer

Exterior:Lights,
  ExtLights,                  !- Name
  AlwaysOn,                   !- Schedule Name
  5250,                       !- Design Level
  AstronomicalClock,          !- Control Option
  Grounds Lights;             !- End Use Subcategory

GlobalGeometryRules,
  UpperLeftCorner,            !- Starting Vertex Position
  CounterClockWise,           !- Vertex Entry Direction
  World;                      !- Coordinate System

HeatBalanceAlgorithm,
  ConductionTransferFunction; !- Algorithm

Material,
  C5 - 4 IN HW CONCRETE,      !- Name
  MediumRough,                !- Roughness
  0.101498,                   !- Thickness
  1.72958,                    !- Conductivity
  2242.59,                    !- Density
  836.8,                      !- Specific Heat
  0.9,                        !- Thermal Absorptance
  0.65,                       !- Solar Absorptance
  0.65;                       !- Visible Absorptance

Material:NoMass,
  R13LAYER,                   !- Name
  Rough,                      !- Roughness
  2.29096,                    !- Thermal Resistance
  0.9,                        !- Thermal Absorptance
  0.75,                       !- Solar Absorptance
  0.75;                       !- Visible Absorptance

Material:NoMass,
  R31LAYER,                   !- Name
  Rough,                      !- Roughness
  5.456,                      !- Thermal Resistance
  0.9,                        !- Thermal Absorptance
  0.75,                       !- Solar Absorptance
  0.75;                       !- Visible Absorptance

OtherEquipment,
  Test 352a,                  !- Name
  None,                       !- Fuel Type
  ZONE ONE,                   !- Zone Or Zonelist Or Space Or Spacelist Name
  AlwaysOn,                   !- Schedule Name
  EquipmentLevel,             !- Design Level Calculation Method
  352,                        !- Design Level
  ,                           !- Power Per Floor Area
  ,                           !- Power Per Person
  0,                          !- Fraction Latent
  0,                          !- Fraction Radiant
  0;                          !- Fraction Lost

OtherEquipment,
  Test 352 minus,             !- Name
  None,                       !- Fuel Type
  ZONE ONE,                   !- Zone Or Zonelist Or Space Or Spacelist Name
  AlwaysOn,                   !- Schedule Name
  EquipmentLevel,             !- Design Level Calculation Method
  -352,                       !- Design Level
  ,                           !- Power Per Floor Area
  ,                           !- Power Per Person
  0,                          !- Fraction Latent
  0,                          !- Fraction Radiant
  0;                          !- Fraction Lost

Output:Constructions,
  Constructions;              !- Details Type 1

Output:Meter:MeterFileOnly,
  ExteriorLights:Electricity, !- Key Name
  hourly;                     !- Reporting Frequency

Output:Meter:MeterFileOnly,
  EnergyTransfer:Building,    !- Key Name
  hourly;                     !- Reporting Frequency

Output:Meter:MeterFileOnly,
  EnergyTransfer:Facility,    !- Key Name
  hourly;                     !- Reporting Frequency

Output:Surfaces:Drawing,
  dxf:wireframe;              !- Report Type

Output:Table:SummaryReports,
  AllSummary;                 !- Report Name

Output:Variable,
  *,                          !- Key Value
  Site Outdoor Air Drybulb Temperature,!- Variable Name
  hourly;                     !- Reporting Frequency

Output:Variable,
  *,                          !- Key Value
  Site Total Sky Cover,       !- Variable Name
  hourly;                     !- Reporting Frequency

Output:Variable,
  *,                          !- Key Value
  Site Opaque Sky Cover,      !- Variable Name
  hourly;                     !- Reporting Frequency

Output:Variable,
  *,                          !- Key Value
  Site Daylight Saving Time Status,!- Variable Name
  daily;                      !- Reporting Frequency

Output:Variable,
  *,                          !- Key Value
  Site Day Type Index,        !- Variable Name
  daily;                      !- Reporting Frequency

Output:Variable,
  *,                          !- Key Value
  Zone Mean Air Temperature,  !- Variable Name
  hourly;                     !- Reporting Frequency

Output:Variable,
  *,                          !- Key Value
  Zone Operative Temperature, !- Variable Name
  hourly;                     !- Reporting Frequency

Output:Variable,
  ZONE ONE,                   !- Key Value
  Zone Wetbulb Globe Temperature,!- Variable Name
  hourly;                     !- Reporting Frequency

Output:Variable,
  *,                          !- Key Value
  Zone Total Internal Latent Gain Energy,!- Variable Name
  hourly;                     !- Reporting Frequency

Output:Variable,
  *,                          !- Key Value
  Zone Mean Radiant Temperature,!- Variable Name
  hourly;                     !- Reporting Frequency

Output:Variable,
  *,                          !- Key Value
  Zone Air Heat Balance Surface Convection Rate,!- Variable Name
  hourly;                     !- Reporting Frequency

Output:Variable,
  *,                          !- Key Value
  Zone Air Heat Balance Air Energy Storage Rate,!- Variable Name
  hourly;                     !- Reporting Frequency

Output:Variable,
  *,                          !- Key Value
  Surface Inside Face Temperature,!- Variable Name
  daily;                      !- Reporting Frequency

Output:Variable,
  *,                          !- Key Value
  Surface Outside Face Temperature,!- Variable Name
  daily;                      !- Reporting Frequency

Output:Variable,
  *,                          !- Key Value
  Surface Inside Face Convection Heat Transfer Coefficient,!- Variable Name
  daily;                      !- Reporting Frequency

Output:Variable,
  *,                          !- Key Value
  Surface Outside Face Convection Heat Transfer Coefficient,!- Variable Name
  daily;                      !- Reporting Frequency

Output:Variable,
  *,                          !- Key Value
  Other Equipment Total Heating Energy,!- Variable Name
  monthly;                    !- Reporting Frequency

Output:Variable,
  *,                          !- Key Value
  Zone Other Equipment Total Heating Energy,!- Variable Name
  monthly;                    !- Reporting Frequency

Output:Variable,
  *,                          !- Key Value
  Site Outdoor Air Drybulb Temperature,!- Variable Name
  timestep;                   !- Reporting Frequency

Output:Variable,
  *,                          !- Key Value
  Zone Other Equipment Total Heating Energy,!- Variable Name
  runperiod;                  !- Reporting Frequency

Output:VariableDictionary,
  IDF;                        !- Key Field

OutputControl:Table:Style,
  ALL;                        !- Column Separator

RunPeriod,
  Run Period 1,               !- Name
  1,                          !- Begin Month
  1,                          !- Begin Day Of Month
  ,                           !- Begin Year
  12,                         !- End Month
  31,                         !- End Day Of Month
  ,                           !- End Year
  Tuesday,                    !- Day Of Week For Start Day
  Yes,                        !- Use Weather File Holidays And Special Days
  Yes,                        !- Use Weather File Daylight Saving Period
  No,                         !- Apply Weekend Holiday Rule
  Yes,                        !- Use Weather File Rain Indicators
  Yes;                        !- Use Weather File Snow Indicators

Schedule:Constant,
  AlwaysOn,                   !- Name
  On/Off,                     !- Schedule Type Limits Name
  1;                          !- Hourly Value

ScheduleTypeLimits,
  Fraction,                   !- Name
  0,                          !- Lower Limit Value
  1,                          !- Upper Limit Value
  CONTINUOUS;                 !- Numeric Type

ScheduleTypeLimits,
  On/Off,                     !- Name
  0,                          !- Lower Limit Value
  1,                          !- Upper Limit Value
  DISCRETE;                   !- Numeric Type

SimulationControl,
  No,                         !- Do Zone Sizing Calculation
  No,                         !- Do System Sizing Calculation
  No,                         !- Do Plant Sizing Calculation
  Yes,                        !- Run Simulation For Sizing Periods
  Yes,                        !- Run Simulation For Weather File Run Periods
  No,                         !- Do Hvac Sizing Simulation For Sizing Periods
  1;                          !- Maximum Number Of Hvac Sizing Simulation Passes

Site:Location,
  Denver Centennial  Golden   N_CO_USA Design_Conditions,!- Name
  39.74,                      !- Latitude
  -105.18,                    !- Longitude
  -7,                         !- Time Zone
  1829;                       !- Elevation

SizingPeriod:DesignDay,
  Denver Centennial  Golden   N Ann Htg 99% Condns DB,!- Name
  12,                         !- Month
  21,                         !- Day Of Month
  WinterDesignDay,            !- Day Type
  -15.5,                      !- Maximum Dry Bulb Temperature
  0,                          !- Daily Dry Bulb Temperature Range
  ,                           !- Dry Bulb Temperature Range Modifier Type
  ,                           !- Dry Bulb Temperature Range Modifier Day Schedule Name
  Wetbulb,                    !- Humidity Condition Type
  -15.5,                      !- Wetbulb Or Dewpoint At Maximum Dry Bulb
  ,                           !- Humidity Condition Day Schedule Name
  ,                           !- Humidity Ratio At Maximum Dry Bulb
  ,                           !- Enthalpy At Maximum Dry Bulb
  ,                           !- Daily Wet Bulb Temperature Range
  81198,                      !- Barometric Pressure
  3,                          !- Wind Speed
  340,                        !- Wind Direction
  No,                         !- Rain Indicator
  No,                         !- Snow Indicator
  No,                         !- Daylight Saving Time Indicator
  ASHRAEClearSky,             !- Solar Model Indicator
  ,                           !- Beam Solar Day Schedule Name
  ,                           !- Diffuse Solar Day Schedule Name
  ,                           !- Ashrae Clear Sky Optical Depth For Beam Irradiance Taub 
  ,                           !- Ashrae Clear Sky Optical Depth For Diffuse Irradiance Taud 
  0;                          !- Sky Clearness

SizingPeriod:DesignDay,
  Denver Centennial  Golden   N Ann Clg 1% Condns DB=>MWB,!- Name
  7,                          !- Month
  21,                         !- Day Of Month
  SummerDesignDay,            !- Day Type
  32,                         !- Maximum Dry Bulb Temperature
  15.2,                       !- Daily Dry Bulb Temperature Range
  ,                           !- Dry Bulb Temperature Range Modifier Type
  ,                           !- Dry Bulb Temperature Range Modifier Day Schedule Name
  Wetbulb,                    !- Humidity Condition Type
  15.5,                       !- Wetbulb Or Dewpoint At Maximum Dry Bulb
  ,                           !- Humidity Condition Day Schedule Name
  ,                           !- Humidity Ratio At Maximum Dry Bulb
  ,                           !- Enthalpy At Maximum Dry Bulb
  ,                           !- Daily Wet Bulb Temperature Range
  81198,                      !- Barometric Pressure
  4.9,                        !- Wind Speed
  0,                          !- Wind Direction
  No,                         !- Rain Indicator
  No,                         !- Snow Indicator
  No,                         !- Daylight Saving Time Indicator
  ASHRAEClearSky,             !- Solar Model Indicator
  ,                           !- Beam Solar Day Schedule Name
  ,                           !- Diffuse Solar Day Schedule Name
  ,                           !- Ashrae Clear Sky Optical Depth For Beam Irradiance Taub 
  ,                           !- Ashrae Clear Sky Optical Depth For Diffuse Irradiance Taud 
  1;                          !- Sky Clearness

SurfaceConvectionAlgorithm:Inside,
  TARP;                       !- Algorithm

SurfaceConvectionAlgorithm:Outside,
  DOE-2;                      !- Algorithm

Timestep,
  4;                          !- Number Of Timesteps Per Hour

Zone,
  ZONE ONE,                   !- Name
  0,                          !- Direction Of Relative North
  0,                          !- X Origin
  0,                          !- Y Origin
  0,                          !- Z Origin
  1,                          !- Type
  1,                          !- Multiplier
  autocalculate,              !- Ceiling Height
  autocalculate;              !- Volume
